proyfinal/src/viki/013/experimentInOfficeAgust.take6.output/ceb8df4f-4475-4abb-b813-29eed547b776.als.out
Reading from standard input... Use '--help' for help.
============================[ Problem Statistics ]=============================
|                                                                             |
|  Number of variables:         87638                                         |
|  Number of clauses:          161767                                         |
|  Parse time:                   0.04 s                                       |
|                                                                             |
============================[ Search Statistics ]==============================
| Conflicts |          ORIGINAL         |          LEARNT          | Progress |
|           |    Vars  Clauses Literals |    Limit  Clauses Lit/Cl |          |
===============================================================================
|       100 |   62804   106628   266510 |    39096      100     24 | 28.337 % |
|       250 |   62803   106584   266420 |    43006      249     71 | 28.338 % |
|       475 |   62803   106584   266420 |    47307      474    102 | 28.338 % |
|       812 |   62803   106584   266420 |    52038      811     97 | 28.338 % |
|      1318 |   62785   106510   266249 |    57241     1310     94 | 28.359 % |
|      2077 |   62785   106510   266249 |    62966     2069     91 | 28.359 % |
|      3216 |   50106    70041   176482 |    69262     3128    113 | 42.826 % |
|      4924 |   49532    68473   172168 |    76188     4753     92 | 43.481 % |
|      7486 |   49385    67516   169905 |    83807     7264     75 | 43.649 % |
|     11330 |   48983    66017   166359 |    92188    11080     65 | 44.108 % |
===============================================================================
restarts              : 62
conflicts             : 14976          (7973 /sec)
decisions             : 50479          (0.00 % random) (26875 /sec)
propagations          : 19039440       (10136414 /sec)
conflict literals     : 863184         (44.31 % deleted)
Memory used           : 32.40 MB
CPU time              : 1.87832 s

UNSATISFIABLE
